c Graph Colouring to DIMACS
p cnf 300 2642
10 9 8 7 6 5 4 3 2 1 0
-1 -2 0
-1 -3 0
-1 -4 0
-1 -5 0
-1 -6 0
-1 -7 0
-1 -8 0
-1 -9 0
-1 -10 0
-2 -3 0
-2 -4 0
-2 -5 0
-2 -6 0
-2 -7 0
-2 -8 0
-2 -9 0
-2 -10 0
-3 -4 0
-3 -5 0
-3 -6 0
-3 -7 0
-3 -8 0
-3 -9 0
-3 -10 0
-4 -5 0
-4 -6 0
-4 -7 0
-4 -8 0
-4 -9 0
-4 -10 0
-5 -6 0
-5 -7 0
-5 -8 0
-5 -9 0
-5 -10 0
-6 -7 0
-6 -8 0
-6 -9 0
-6 -10 0
-7 -8 0
-7 -9 0
-7 -10 0
-8 -9 0
-8 -10 0
-9 -10 0
-1 -71 0
-2 -72 0
-3 -73 0
-4 -74 0
-5 -75 0
-6 -76 0
-7 -77 0
-8 -78 0
-9 -79 0
-10 -80 0
-1 -41 0
-2 -42 0
-3 -43 0
-4 -44 0
-5 -45 0
-6 -46 0
-7 -47 0
-8 -48 0
-9 -49 0
-10 -50 0
-1 -181 0
-2 -182 0
-3 -183 0
-4 -184 0
-5 -185 0
-6 -186 0
-7 -187 0
-8 -188 0
-9 -189 0
-10 -190 0
-1 -281 0
-2 -282 0
-3 -283 0
-4 -284 0
-5 -285 0
-6 -286 0
-7 -287 0
-8 -288 0
-9 -289 0
-10 -290 0
-1 -131 0
-2 -132 0
-3 -133 0
-4 -134 0
-5 -135 0
-6 -136 0
-7 -137 0
-8 -138 0
-9 -139 0
-10 -140 0
-1 -41 0
-2 -42 0
-3 -43 0
-4 -44 0
-5 -45 0
-6 -46 0
-7 -47 0
-8 -48 0
-9 -49 0
-10 -50 0
-1 -271 0
-2 -272 0
-3 -273 0
-4 -274 0
-5 -275 0
-6 -276 0
-7 -277 0
-8 -278 0
-9 -279 0
-10 -280 0
20 19 18 17 16 15 14 13 12 11 0
-11 -12 0
-11 -13 0
-11 -14 0
-11 -15 0
-11 -16 0
-11 -17 0
-11 -18 0
-11 -19 0
-11 -20 0
-12 -13 0
-12 -14 0
-12 -15 0
-12 -16 0
-12 -17 0
-12 -18 0
-12 -19 0
-12 -20 0
-13 -14 0
-13 -15 0
-13 -16 0
-13 -17 0
-13 -18 0
-13 -19 0
-13 -20 0
-14 -15 0
-14 -16 0
-14 -17 0
-14 -18 0
-14 -19 0
-14 -20 0
-15 -16 0
-15 -17 0
-15 -18 0
-15 -19 0
-15 -20 0
-16 -17 0
-16 -18 0
-16 -19 0
-16 -20 0
-17 -18 0
-17 -19 0
-17 -20 0
-18 -19 0
-18 -20 0
-19 -20 0
-11 -131 0
-12 -132 0
-13 -133 0
-14 -134 0
-15 -135 0
-16 -136 0
-17 -137 0
-18 -138 0
-19 -139 0
-20 -140 0
-11 -121 0
-12 -122 0
-13 -123 0
-14 -124 0
-15 -125 0
-16 -126 0
-17 -127 0
-18 -128 0
-19 -129 0
-20 -130 0
30 29 28 27 26 25 24 23 22 21 0
-21 -22 0
-21 -23 0
-21 -24 0
-21 -25 0
-21 -26 0
-21 -27 0
-21 -28 0
-21 -29 0
-21 -30 0
-22 -23 0
-22 -24 0
-22 -25 0
-22 -26 0
-22 -27 0
-22 -28 0
-22 -29 0
-22 -30 0
-23 -24 0
-23 -25 0
-23 -26 0
-23 -27 0
-23 -28 0
-23 -29 0
-23 -30 0
-24 -25 0
-24 -26 0
-24 -27 0
-24 -28 0
-24 -29 0
-24 -30 0
-25 -26 0
-25 -27 0
-25 -28 0
-25 -29 0
-25 -30 0
-26 -27 0
-26 -28 0
-26 -29 0
-26 -30 0
-27 -28 0
-27 -29 0
-27 -30 0
-28 -29 0
-28 -30 0
-29 -30 0
-21 -71 0
-22 -72 0
-23 -73 0
-24 -74 0
-25 -75 0
-26 -76 0
-27 -77 0
-28 -78 0
-29 -79 0
-30 -80 0
-21 -271 0
-22 -272 0
-23 -273 0
-24 -274 0
-25 -275 0
-26 -276 0
-27 -277 0
-28 -278 0
-29 -279 0
-30 -280 0
-21 -271 0
-22 -272 0
-23 -273 0
-24 -274 0
-25 -275 0
-26 -276 0
-27 -277 0
-28 -278 0
-29 -279 0
-30 -280 0
-21 -111 0
-22 -112 0
-23 -113 0
-24 -114 0
-25 -115 0
-26 -116 0
-27 -117 0
-28 -118 0
-29 -119 0
-30 -120 0
40 39 38 37 36 35 34 33 32 31 0
-31 -32 0
-31 -33 0
-31 -34 0
-31 -35 0
-31 -36 0
-31 -37 0
-31 -38 0
-31 -39 0
-31 -40 0
-32 -33 0
-32 -34 0
-32 -35 0
-32 -36 0
-32 -37 0
-32 -38 0
-32 -39 0
-32 -40 0
-33 -34 0
-33 -35 0
-33 -36 0
-33 -37 0
-33 -38 0
-33 -39 0
-33 -40 0
-34 -35 0
-34 -36 0
-34 -37 0
-34 -38 0
-34 -39 0
-34 -40 0
-35 -36 0
-35 -37 0
-35 -38 0
-35 -39 0
-35 -40 0
-36 -37 0
-36 -38 0
-36 -39 0
-36 -40 0
-37 -38 0
-37 -39 0
-37 -40 0
-38 -39 0
-38 -40 0
-39 -40 0
-31 -231 0
-32 -232 0
-33 -233 0
-34 -234 0
-35 -235 0
-36 -236 0
-37 -237 0
-38 -238 0
-39 -239 0
-40 -240 0
-31 -101 0
-32 -102 0
-33 -103 0
-34 -104 0
-35 -105 0
-36 -106 0
-37 -107 0
-38 -108 0
-39 -109 0
-40 -110 0
-31 -101 0
-32 -102 0
-33 -103 0
-34 -104 0
-35 -105 0
-36 -106 0
-37 -107 0
-38 -108 0
-39 -109 0
-40 -110 0
-31 -151 0
-32 -152 0
-33 -153 0
-34 -154 0
-35 -155 0
-36 -156 0
-37 -157 0
-38 -158 0
-39 -159 0
-40 -160 0
-31 -51 0
-32 -52 0
-33 -53 0
-34 -54 0
-35 -55 0
-36 -56 0
-37 -57 0
-38 -58 0
-39 -59 0
-40 -60 0
50 49 48 47 46 45 44 43 42 41 0
-41 -42 0
-41 -43 0
-41 -44 0
-41 -45 0
-41 -46 0
-41 -47 0
-41 -48 0
-41 -49 0
-41 -50 0
-42 -43 0
-42 -44 0
-42 -45 0
-42 -46 0
-42 -47 0
-42 -48 0
-42 -49 0
-42 -50 0
-43 -44 0
-43 -45 0
-43 -46 0
-43 -47 0
-43 -48 0
-43 -49 0
-43 -50 0
-44 -45 0
-44 -46 0
-44 -47 0
-44 -48 0
-44 -49 0
-44 -50 0
-45 -46 0
-45 -47 0
-45 -48 0
-45 -49 0
-45 -50 0
-46 -47 0
-46 -48 0
-46 -49 0
-46 -50 0
-47 -48 0
-47 -49 0
-47 -50 0
-48 -49 0
-48 -50 0
-49 -50 0
-41 -61 0
-42 -62 0
-43 -63 0
-44 -64 0
-45 -65 0
-46 -66 0
-47 -67 0
-48 -68 0
-49 -69 0
-50 -70 0
-41 -271 0
-42 -272 0
-43 -273 0
-44 -274 0
-45 -275 0
-46 -276 0
-47 -277 0
-48 -278 0
-49 -279 0
-50 -280 0
-41 -171 0
-42 -172 0
-43 -173 0
-44 -174 0
-45 -175 0
-46 -176 0
-47 -177 0
-48 -178 0
-49 -179 0
-50 -180 0
-41 -181 0
-42 -182 0
-43 -183 0
-44 -184 0
-45 -185 0
-46 -186 0
-47 -187 0
-48 -188 0
-49 -189 0
-50 -190 0
-41 -91 0
-42 -92 0
-43 -93 0
-44 -94 0
-45 -95 0
-46 -96 0
-47 -97 0
-48 -98 0
-49 -99 0
-50 -100 0
60 59 58 57 56 55 54 53 52 51 0
-51 -52 0
-51 -53 0
-51 -54 0
-51 -55 0
-51 -56 0
-51 -57 0
-51 -58 0
-51 -59 0
-51 -60 0
-52 -53 0
-52 -54 0
-52 -55 0
-52 -56 0
-52 -57 0
-52 -58 0
-52 -59 0
-52 -60 0
-53 -54 0
-53 -55 0
-53 -56 0
-53 -57 0
-53 -58 0
-53 -59 0
-53 -60 0
-54 -55 0
-54 -56 0
-54 -57 0
-54 -58 0
-54 -59 0
-54 -60 0
-55 -56 0
-55 -57 0
-55 -58 0
-55 -59 0
-55 -60 0
-56 -57 0
-56 -58 0
-56 -59 0
-56 -60 0
-57 -58 0
-57 -59 0
-57 -60 0
-58 -59 0
-58 -60 0
-59 -60 0
-51 -181 0
-52 -182 0
-53 -183 0
-54 -184 0
-55 -185 0
-56 -186 0
-57 -187 0
-58 -188 0
-59 -189 0
-60 -190 0
-51 -1 0
-52 -2 0
-53 -3 0
-54 -4 0
-55 -5 0
-56 -6 0
-57 -7 0
-58 -8 0
-59 -9 0
-60 -10 0
-51 -161 0
-52 -162 0
-53 -163 0
-54 -164 0
-55 -165 0
-56 -166 0
-57 -167 0
-58 -168 0
-59 -169 0
-60 -170 0
-51 -191 0
-52 -192 0
-53 -193 0
-54 -194 0
-55 -195 0
-56 -196 0
-57 -197 0
-58 -198 0
-59 -199 0
-60 -200 0
-51 -211 0
-52 -212 0
-53 -213 0
-54 -214 0
-55 -215 0
-56 -216 0
-57 -217 0
-58 -218 0
-59 -219 0
-60 -220 0
70 69 68 67 66 65 64 63 62 61 0
-61 -62 0
-61 -63 0
-61 -64 0
-61 -65 0
-61 -66 0
-61 -67 0
-61 -68 0
-61 -69 0
-61 -70 0
-62 -63 0
-62 -64 0
-62 -65 0
-62 -66 0
-62 -67 0
-62 -68 0
-62 -69 0
-62 -70 0
-63 -64 0
-63 -65 0
-63 -66 0
-63 -67 0
-63 -68 0
-63 -69 0
-63 -70 0
-64 -65 0
-64 -66 0
-64 -67 0
-64 -68 0
-64 -69 0
-64 -70 0
-65 -66 0
-65 -67 0
-65 -68 0
-65 -69 0
-65 -70 0
-66 -67 0
-66 -68 0
-66 -69 0
-66 -70 0
-67 -68 0
-67 -69 0
-67 -70 0
-68 -69 0
-68 -70 0
-69 -70 0
-61 -241 0
-62 -242 0
-63 -243 0
-64 -244 0
-65 -245 0
-66 -246 0
-67 -247 0
-68 -248 0
-69 -249 0
-70 -250 0
-61 -21 0
-62 -22 0
-63 -23 0
-64 -24 0
-65 -25 0
-66 -26 0
-67 -27 0
-68 -28 0
-69 -29 0
-70 -30 0
-61 -41 0
-62 -42 0
-63 -43 0
-64 -44 0
-65 -45 0
-66 -46 0
-67 -47 0
-68 -48 0
-69 -49 0
-70 -50 0
80 79 78 77 76 75 74 73 72 71 0
-71 -72 0
-71 -73 0
-71 -74 0
-71 -75 0
-71 -76 0
-71 -77 0
-71 -78 0
-71 -79 0
-71 -80 0
-72 -73 0
-72 -74 0
-72 -75 0
-72 -76 0
-72 -77 0
-72 -78 0
-72 -79 0
-72 -80 0
-73 -74 0
-73 -75 0
-73 -76 0
-73 -77 0
-73 -78 0
-73 -79 0
-73 -80 0
-74 -75 0
-74 -76 0
-74 -77 0
-74 -78 0
-74 -79 0
-74 -80 0
-75 -76 0
-75 -77 0
-75 -78 0
-75 -79 0
-75 -80 0
-76 -77 0
-76 -78 0
-76 -79 0
-76 -80 0
-77 -78 0
-77 -79 0
-77 -80 0
-78 -79 0
-78 -80 0
-79 -80 0
-71 -261 0
-72 -262 0
-73 -263 0
-74 -264 0
-75 -265 0
-76 -266 0
-77 -267 0
-78 -268 0
-79 -269 0
-80 -270 0
-71 -201 0
-72 -202 0
-73 -203 0
-74 -204 0
-75 -205 0
-76 -206 0
-77 -207 0
-78 -208 0
-79 -209 0
-80 -210 0
-71 -41 0
-72 -42 0
-73 -43 0
-74 -44 0
-75 -45 0
-76 -46 0
-77 -47 0
-78 -48 0
-79 -49 0
-80 -50 0
-71 -171 0
-72 -172 0
-73 -173 0
-74 -174 0
-75 -175 0
-76 -176 0
-77 -177 0
-78 -178 0
-79 -179 0
-80 -180 0
-71 -261 0
-72 -262 0
-73 -263 0
-74 -264 0
-75 -265 0
-76 -266 0
-77 -267 0
-78 -268 0
-79 -269 0
-80 -270 0
90 89 88 87 86 85 84 83 82 81 0
-81 -82 0
-81 -83 0
-81 -84 0
-81 -85 0
-81 -86 0
-81 -87 0
-81 -88 0
-81 -89 0
-81 -90 0
-82 -83 0
-82 -84 0
-82 -85 0
-82 -86 0
-82 -87 0
-82 -88 0
-82 -89 0
-82 -90 0
-83 -84 0
-83 -85 0
-83 -86 0
-83 -87 0
-83 -88 0
-83 -89 0
-83 -90 0
-84 -85 0
-84 -86 0
-84 -87 0
-84 -88 0
-84 -89 0
-84 -90 0
-85 -86 0
-85 -87 0
-85 -88 0
-85 -89 0
-85 -90 0
-86 -87 0
-86 -88 0
-86 -89 0
-86 -90 0
-87 -88 0
-87 -89 0
-87 -90 0
-88 -89 0
-88 -90 0
-89 -90 0
-81 -161 0
-82 -162 0
-83 -163 0
-84 -164 0
-85 -165 0
-86 -166 0
-87 -167 0
-88 -168 0
-89 -169 0
-90 -170 0
-81 -51 0
-82 -52 0
-83 -53 0
-84 -54 0
-85 -55 0
-86 -56 0
-87 -57 0
-88 -58 0
-89 -59 0
-90 -60 0
-81 -111 0
-82 -112 0
-83 -113 0
-84 -114 0
-85 -115 0
-86 -116 0
-87 -117 0
-88 -118 0
-89 -119 0
-90 -120 0
100 99 98 97 96 95 94 93 92 91 0
-91 -92 0
-91 -93 0
-91 -94 0
-91 -95 0
-91 -96 0
-91 -97 0
-91 -98 0
-91 -99 0
-91 -100 0
-92 -93 0
-92 -94 0
-92 -95 0
-92 -96 0
-92 -97 0
-92 -98 0
-92 -99 0
-92 -100 0
-93 -94 0
-93 -95 0
-93 -96 0
-93 -97 0
-93 -98 0
-93 -99 0
-93 -100 0
-94 -95 0
-94 -96 0
-94 -97 0
-94 -98 0
-94 -99 0
-94 -100 0
-95 -96 0
-95 -97 0
-95 -98 0
-95 -99 0
-95 -100 0
-96 -97 0
-96 -98 0
-96 -99 0
-96 -100 0
-97 -98 0
-97 -99 0
-97 -100 0
-98 -99 0
-98 -100 0
-99 -100 0
-91 -291 0
-92 -292 0
-93 -293 0
-94 -294 0
-95 -295 0
-96 -296 0
-97 -297 0
-98 -298 0
-99 -299 0
-100 -300 0
-91 -161 0
-92 -162 0
-93 -163 0
-94 -164 0
-95 -165 0
-96 -166 0
-97 -167 0
-98 -168 0
-99 -169 0
-100 -170 0
-91 -251 0
-92 -252 0
-93 -253 0
-94 -254 0
-95 -255 0
-96 -256 0
-97 -257 0
-98 -258 0
-99 -259 0
-100 -260 0
110 109 108 107 106 105 104 103 102 101 0
-101 -102 0
-101 -103 0
-101 -104 0
-101 -105 0
-101 -106 0
-101 -107 0
-101 -108 0
-101 -109 0
-101 -110 0
-102 -103 0
-102 -104 0
-102 -105 0
-102 -106 0
-102 -107 0
-102 -108 0
-102 -109 0
-102 -110 0
-103 -104 0
-103 -105 0
-103 -106 0
-103 -107 0
-103 -108 0
-103 -109 0
-103 -110 0
-104 -105 0
-104 -106 0
-104 -107 0
-104 -108 0
-104 -109 0
-104 -110 0
-105 -106 0
-105 -107 0
-105 -108 0
-105 -109 0
-105 -110 0
-106 -107 0
-106 -108 0
-106 -109 0
-106 -110 0
-107 -108 0
-107 -109 0
-107 -110 0
-108 -109 0
-108 -110 0
-109 -110 0
-101 -111 0
-102 -112 0
-103 -113 0
-104 -114 0
-105 -115 0
-106 -116 0
-107 -117 0
-108 -118 0
-109 -119 0
-110 -120 0
-101 -61 0
-102 -62 0
-103 -63 0
-104 -64 0
-105 -65 0
-106 -66 0
-107 -67 0
-108 -68 0
-109 -69 0
-110 -70 0
-101 -211 0
-102 -212 0
-103 -213 0
-104 -214 0
-105 -215 0
-106 -216 0
-107 -217 0
-108 -218 0
-109 -219 0
-110 -220 0
-101 -131 0
-102 -132 0
-103 -133 0
-104 -134 0
-105 -135 0
-106 -136 0
-107 -137 0
-108 -138 0
-109 -139 0
-110 -140 0
-101 -41 0
-102 -42 0
-103 -43 0
-104 -44 0
-105 -45 0
-106 -46 0
-107 -47 0
-108 -48 0
-109 -49 0
-110 -50 0
120 119 118 117 116 115 114 113 112 111 0
-111 -112 0
-111 -113 0
-111 -114 0
-111 -115 0
-111 -116 0
-111 -117 0
-111 -118 0
-111 -119 0
-111 -120 0
-112 -113 0
-112 -114 0
-112 -115 0
-112 -116 0
-112 -117 0
-112 -118 0
-112 -119 0
-112 -120 0
-113 -114 0
-113 -115 0
-113 -116 0
-113 -117 0
-113 -118 0
-113 -119 0
-113 -120 0
-114 -115 0
-114 -116 0
-114 -117 0
-114 -118 0
-114 -119 0
-114 -120 0
-115 -116 0
-115 -117 0
-115 -118 0
-115 -119 0
-115 -120 0
-116 -117 0
-116 -118 0
-116 -119 0
-116 -120 0
-117 -118 0
-117 -119 0
-117 -120 0
-118 -119 0
-118 -120 0
-119 -120 0
-111 -221 0
-112 -222 0
-113 -223 0
-114 -224 0
-115 -225 0
-116 -226 0
-117 -227 0
-118 -228 0
-119 -229 0
-120 -230 0
-111 -71 0
-112 -72 0
-113 -73 0
-114 -74 0
-115 -75 0
-116 -76 0
-117 -77 0
-118 -78 0
-119 -79 0
-120 -80 0
-111 -171 0
-112 -172 0
-113 -173 0
-114 -174 0
-115 -175 0
-116 -176 0
-117 -177 0
-118 -178 0
-119 -179 0
-120 -180 0
-111 -241 0
-112 -242 0
-113 -243 0
-114 -244 0
-115 -245 0
-116 -246 0
-117 -247 0
-118 -248 0
-119 -249 0
-120 -250 0
-111 -201 0
-112 -202 0
-113 -203 0
-114 -204 0
-115 -205 0
-116 -206 0
-117 -207 0
-118 -208 0
-119 -209 0
-120 -210 0
-111 -291 0
-112 -292 0
-113 -293 0
-114 -294 0
-115 -295 0
-116 -296 0
-117 -297 0
-118 -298 0
-119 -299 0
-120 -300 0
130 129 128 127 126 125 124 123 122 121 0
-121 -122 0
-121 -123 0
-121 -124 0
-121 -125 0
-121 -126 0
-121 -127 0
-121 -128 0
-121 -129 0
-121 -130 0
-122 -123 0
-122 -124 0
-122 -125 0
-122 -126 0
-122 -127 0
-122 -128 0
-122 -129 0
-122 -130 0
-123 -124 0
-123 -125 0
-123 -126 0
-123 -127 0
-123 -128 0
-123 -129 0
-123 -130 0
-124 -125 0
-124 -126 0
-124 -127 0
-124 -128 0
-124 -129 0
-124 -130 0
-125 -126 0
-125 -127 0
-125 -128 0
-125 -129 0
-125 -130 0
-126 -127 0
-126 -128 0
-126 -129 0
-126 -130 0
-127 -128 0
-127 -129 0
-127 -130 0
-128 -129 0
-128 -130 0
-129 -130 0
-121 -141 0
-122 -142 0
-123 -143 0
-124 -144 0
-125 -145 0
-126 -146 0
-127 -147 0
-128 -148 0
-129 -149 0
-130 -150 0
-121 -181 0
-122 -182 0
-123 -183 0
-124 -184 0
-125 -185 0
-126 -186 0
-127 -187 0
-128 -188 0
-129 -189 0
-130 -190 0
-121 -241 0
-122 -242 0
-123 -243 0
-124 -244 0
-125 -245 0
-126 -246 0
-127 -247 0
-128 -248 0
-129 -249 0
-130 -250 0
-121 -101 0
-122 -102 0
-123 -103 0
-124 -104 0
-125 -105 0
-126 -106 0
-127 -107 0
-128 -108 0
-129 -109 0
-130 -110 0
-121 -11 0
-122 -12 0
-123 -13 0
-124 -14 0
-125 -15 0
-126 -16 0
-127 -17 0
-128 -18 0
-129 -19 0
-130 -20 0
-121 -1 0
-122 -2 0
-123 -3 0
-124 -4 0
-125 -5 0
-126 -6 0
-127 -7 0
-128 -8 0
-129 -9 0
-130 -10 0
140 139 138 137 136 135 134 133 132 131 0
-131 -132 0
-131 -133 0
-131 -134 0
-131 -135 0
-131 -136 0
-131 -137 0
-131 -138 0
-131 -139 0
-131 -140 0
-132 -133 0
-132 -134 0
-132 -135 0
-132 -136 0
-132 -137 0
-132 -138 0
-132 -139 0
-132 -140 0
-133 -134 0
-133 -135 0
-133 -136 0
-133 -137 0
-133 -138 0
-133 -139 0
-133 -140 0
-134 -135 0
-134 -136 0
-134 -137 0
-134 -138 0
-134 -139 0
-134 -140 0
-135 -136 0
-135 -137 0
-135 -138 0
-135 -139 0
-135 -140 0
-136 -137 0
-136 -138 0
-136 -139 0
-136 -140 0
-137 -138 0
-137 -139 0
-137 -140 0
-138 -139 0
-138 -140 0
-139 -140 0
-131 -141 0
-132 -142 0
-133 -143 0
-134 -144 0
-135 -145 0
-136 -146 0
-137 -147 0
-138 -148 0
-139 -149 0
-140 -150 0
-131 -271 0
-132 -272 0
-133 -273 0
-134 -274 0
-135 -275 0
-136 -276 0
-137 -277 0
-138 -278 0
-139 -279 0
-140 -280 0
150 149 148 147 146 145 144 143 142 141 0
-141 -142 0
-141 -143 0
-141 -144 0
-141 -145 0
-141 -146 0
-141 -147 0
-141 -148 0
-141 -149 0
-141 -150 0
-142 -143 0
-142 -144 0
-142 -145 0
-142 -146 0
-142 -147 0
-142 -148 0
-142 -149 0
-142 -150 0
-143 -144 0
-143 -145 0
-143 -146 0
-143 -147 0
-143 -148 0
-143 -149 0
-143 -150 0
-144 -145 0
-144 -146 0
-144 -147 0
-144 -148 0
-144 -149 0
-144 -150 0
-145 -146 0
-145 -147 0
-145 -148 0
-145 -149 0
-145 -150 0
-146 -147 0
-146 -148 0
-146 -149 0
-146 -150 0
-147 -148 0
-147 -149 0
-147 -150 0
-148 -149 0
-148 -150 0
-149 -150 0
-141 -11 0
-142 -12 0
-143 -13 0
-144 -14 0
-145 -15 0
-146 -16 0
-147 -17 0
-148 -18 0
-149 -19 0
-150 -20 0
-141 -121 0
-142 -122 0
-143 -123 0
-144 -124 0
-145 -125 0
-146 -126 0
-147 -127 0
-148 -128 0
-149 -129 0
-150 -130 0
-141 -1 0
-142 -2 0
-143 -3 0
-144 -4 0
-145 -5 0
-146 -6 0
-147 -7 0
-148 -8 0
-149 -9 0
-150 -10 0
-141 -151 0
-142 -152 0
-143 -153 0
-144 -154 0
-145 -155 0
-146 -156 0
-147 -157 0
-148 -158 0
-149 -159 0
-150 -160 0
-141 -271 0
-142 -272 0
-143 -273 0
-144 -274 0
-145 -275 0
-146 -276 0
-147 -277 0
-148 -278 0
-149 -279 0
-150 -280 0
160 159 158 157 156 155 154 153 152 151 0
-151 -152 0
-151 -153 0
-151 -154 0
-151 -155 0
-151 -156 0
-151 -157 0
-151 -158 0
-151 -159 0
-151 -160 0
-152 -153 0
-152 -154 0
-152 -155 0
-152 -156 0
-152 -157 0
-152 -158 0
-152 -159 0
-152 -160 0
-153 -154 0
-153 -155 0
-153 -156 0
-153 -157 0
-153 -158 0
-153 -159 0
-153 -160 0
-154 -155 0
-154 -156 0
-154 -157 0
-154 -158 0
-154 -159 0
-154 -160 0
-155 -156 0
-155 -157 0
-155 -158 0
-155 -159 0
-155 -160 0
-156 -157 0
-156 -158 0
-156 -159 0
-156 -160 0
-157 -158 0
-157 -159 0
-157 -160 0
-158 -159 0
-158 -160 0
-159 -160 0
-151 -241 0
-152 -242 0
-153 -243 0
-154 -244 0
-155 -245 0
-156 -246 0
-157 -247 0
-158 -248 0
-159 -249 0
-160 -250 0
-151 -41 0
-152 -42 0
-153 -43 0
-154 -44 0
-155 -45 0
-156 -46 0
-157 -47 0
-158 -48 0
-159 -49 0
-160 -50 0
-151 -171 0
-152 -172 0
-153 -173 0
-154 -174 0
-155 -175 0
-156 -176 0
-157 -177 0
-158 -178 0
-159 -179 0
-160 -180 0
170 169 168 167 166 165 164 163 162 161 0
-161 -162 0
-161 -163 0
-161 -164 0
-161 -165 0
-161 -166 0
-161 -167 0
-161 -168 0
-161 -169 0
-161 -170 0
-162 -163 0
-162 -164 0
-162 -165 0
-162 -166 0
-162 -167 0
-162 -168 0
-162 -169 0
-162 -170 0
-163 -164 0
-163 -165 0
-163 -166 0
-163 -167 0
-163 -168 0
-163 -169 0
-163 -170 0
-164 -165 0
-164 -166 0
-164 -167 0
-164 -168 0
-164 -169 0
-164 -170 0
-165 -166 0
-165 -167 0
-165 -168 0
-165 -169 0
-165 -170 0
-166 -167 0
-166 -168 0
-166 -169 0
-166 -170 0
-167 -168 0
-167 -169 0
-167 -170 0
-168 -169 0
-168 -170 0
-169 -170 0
-161 -231 0
-162 -232 0
-163 -233 0
-164 -234 0
-165 -235 0
-166 -236 0
-167 -237 0
-168 -238 0
-169 -239 0
-170 -240 0
-161 -281 0
-162 -282 0
-163 -283 0
-164 -284 0
-165 -285 0
-166 -286 0
-167 -287 0
-168 -288 0
-169 -289 0
-170 -290 0
-161 -261 0
-162 -262 0
-163 -263 0
-164 -264 0
-165 -265 0
-166 -266 0
-167 -267 0
-168 -268 0
-169 -269 0
-170 -270 0
-161 -11 0
-162 -12 0
-163 -13 0
-164 -14 0
-165 -15 0
-166 -16 0
-167 -17 0
-168 -18 0
-169 -19 0
-170 -20 0
180 179 178 177 176 175 174 173 172 171 0
-171 -172 0
-171 -173 0
-171 -174 0
-171 -175 0
-171 -176 0
-171 -177 0
-171 -178 0
-171 -179 0
-171 -180 0
-172 -173 0
-172 -174 0
-172 -175 0
-172 -176 0
-172 -177 0
-172 -178 0
-172 -179 0
-172 -180 0
-173 -174 0
-173 -175 0
-173 -176 0
-173 -177 0
-173 -178 0
-173 -179 0
-173 -180 0
-174 -175 0
-174 -176 0
-174 -177 0
-174 -178 0
-174 -179 0
-174 -180 0
-175 -176 0
-175 -177 0
-175 -178 0
-175 -179 0
-175 -180 0
-176 -177 0
-176 -178 0
-176 -179 0
-176 -180 0
-177 -178 0
-177 -179 0
-177 -180 0
-178 -179 0
-178 -180 0
-179 -180 0
-171 -191 0
-172 -192 0
-173 -193 0
-174 -194 0
-175 -195 0
-176 -196 0
-177 -197 0
-178 -198 0
-179 -199 0
-180 -200 0
-171 -71 0
-172 -72 0
-173 -73 0
-174 -74 0
-175 -75 0
-176 -76 0
-177 -77 0
-178 -78 0
-179 -79 0
-180 -80 0
-171 -41 0
-172 -42 0
-173 -43 0
-174 -44 0
-175 -45 0
-176 -46 0
-177 -47 0
-178 -48 0
-179 -49 0
-180 -50 0
190 189 188 187 186 185 184 183 182 181 0
-181 -182 0
-181 -183 0
-181 -184 0
-181 -185 0
-181 -186 0
-181 -187 0
-181 -188 0
-181 -189 0
-181 -190 0
-182 -183 0
-182 -184 0
-182 -185 0
-182 -186 0
-182 -187 0
-182 -188 0
-182 -189 0
-182 -190 0
-183 -184 0
-183 -185 0
-183 -186 0
-183 -187 0
-183 -188 0
-183 -189 0
-183 -190 0
-184 -185 0
-184 -186 0
-184 -187 0
-184 -188 0
-184 -189 0
-184 -190 0
-185 -186 0
-185 -187 0
-185 -188 0
-185 -189 0
-185 -190 0
-186 -187 0
-186 -188 0
-186 -189 0
-186 -190 0
-187 -188 0
-187 -189 0
-187 -190 0
-188 -189 0
-188 -190 0
-189 -190 0
-181 -141 0
-182 -142 0
-183 -143 0
-184 -144 0
-185 -145 0
-186 -146 0
-187 -147 0
-188 -148 0
-189 -149 0
-190 -150 0
-181 -121 0
-182 -122 0
-183 -123 0
-184 -124 0
-185 -125 0
-186 -126 0
-187 -127 0
-188 -128 0
-189 -129 0
-190 -130 0
-181 -201 0
-182 -202 0
-183 -203 0
-184 -204 0
-185 -205 0
-186 -206 0
-187 -207 0
-188 -208 0
-189 -209 0
-190 -210 0
200 199 198 197 196 195 194 193 192 191 0
-191 -192 0
-191 -193 0
-191 -194 0
-191 -195 0
-191 -196 0
-191 -197 0
-191 -198 0
-191 -199 0
-191 -200 0
-192 -193 0
-192 -194 0
-192 -195 0
-192 -196 0
-192 -197 0
-192 -198 0
-192 -199 0
-192 -200 0
-193 -194 0
-193 -195 0
-193 -196 0
-193 -197 0
-193 -198 0
-193 -199 0
-193 -200 0
-194 -195 0
-194 -196 0
-194 -197 0
-194 -198 0
-194 -199 0
-194 -200 0
-195 -196 0
-195 -197 0
-195 -198 0
-195 -199 0
-195 -200 0
-196 -197 0
-196 -198 0
-196 -199 0
-196 -200 0
-197 -198 0
-197 -199 0
-197 -200 0
-198 -199 0
-198 -200 0
-199 -200 0
-191 -111 0
-192 -112 0
-193 -113 0
-194 -114 0
-195 -115 0
-196 -116 0
-197 -117 0
-198 -118 0
-199 -119 0
-200 -120 0
-191 -261 0
-192 -262 0
-193 -263 0
-194 -264 0
-195 -265 0
-196 -266 0
-197 -267 0
-198 -268 0
-199 -269 0
-200 -270 0
-191 -251 0
-192 -252 0
-193 -253 0
-194 -254 0
-195 -255 0
-196 -256 0
-197 -257 0
-198 -258 0
-199 -259 0
-200 -260 0
210 209 208 207 206 205 204 203 202 201 0
-201 -202 0
-201 -203 0
-201 -204 0
-201 -205 0
-201 -206 0
-201 -207 0
-201 -208 0
-201 -209 0
-201 -210 0
-202 -203 0
-202 -204 0
-202 -205 0
-202 -206 0
-202 -207 0
-202 -208 0
-202 -209 0
-202 -210 0
-203 -204 0
-203 -205 0
-203 -206 0
-203 -207 0
-203 -208 0
-203 -209 0
-203 -210 0
-204 -205 0
-204 -206 0
-204 -207 0
-204 -208 0
-204 -209 0
-204 -210 0
-205 -206 0
-205 -207 0
-205 -208 0
-205 -209 0
-205 -210 0
-206 -207 0
-206 -208 0
-206 -209 0
-206 -210 0
-207 -208 0
-207 -209 0
-207 -210 0
-208 -209 0
-208 -210 0
-209 -210 0
-201 -191 0
-202 -192 0
-203 -193 0
-204 -194 0
-205 -195 0
-206 -196 0
-207 -197 0
-208 -198 0
-209 -199 0
-210 -200 0
-201 -31 0
-202 -32 0
-203 -33 0
-204 -34 0
-205 -35 0
-206 -36 0
-207 -37 0
-208 -38 0
-209 -39 0
-210 -40 0
-201 -101 0
-202 -102 0
-203 -103 0
-204 -104 0
-205 -105 0
-206 -106 0
-207 -107 0
-208 -108 0
-209 -109 0
-210 -110 0
-201 -251 0
-202 -252 0
-203 -253 0
-204 -254 0
-205 -255 0
-206 -256 0
-207 -257 0
-208 -258 0
-209 -259 0
-210 -260 0
-201 -211 0
-202 -212 0
-203 -213 0
-204 -214 0
-205 -215 0
-206 -216 0
-207 -217 0
-208 -218 0
-209 -219 0
-210 -220 0
-201 -181 0
-202 -182 0
-203 -183 0
-204 -184 0
-205 -185 0
-206 -186 0
-207 -187 0
-208 -188 0
-209 -189 0
-210 -190 0
220 219 218 217 216 215 214 213 212 211 0
-211 -212 0
-211 -213 0
-211 -214 0
-211 -215 0
-211 -216 0
-211 -217 0
-211 -218 0
-211 -219 0
-211 -220 0
-212 -213 0
-212 -214 0
-212 -215 0
-212 -216 0
-212 -217 0
-212 -218 0
-212 -219 0
-212 -220 0
-213 -214 0
-213 -215 0
-213 -216 0
-213 -217 0
-213 -218 0
-213 -219 0
-213 -220 0
-214 -215 0
-214 -216 0
-214 -217 0
-214 -218 0
-214 -219 0
-214 -220 0
-215 -216 0
-215 -217 0
-215 -218 0
-215 -219 0
-215 -220 0
-216 -217 0
-216 -218 0
-216 -219 0
-216 -220 0
-217 -218 0
-217 -219 0
-217 -220 0
-218 -219 0
-218 -220 0
-219 -220 0
-211 -21 0
-212 -22 0
-213 -23 0
-214 -24 0
-215 -25 0
-216 -26 0
-217 -27 0
-218 -28 0
-219 -29 0
-220 -30 0
-211 -141 0
-212 -142 0
-213 -143 0
-214 -144 0
-215 -145 0
-216 -146 0
-217 -147 0
-218 -148 0
-219 -149 0
-220 -150 0
-211 -61 0
-212 -62 0
-213 -63 0
-214 -64 0
-215 -65 0
-216 -66 0
-217 -67 0
-218 -68 0
-219 -69 0
-220 -70 0
-211 -101 0
-212 -102 0
-213 -103 0
-214 -104 0
-215 -105 0
-216 -106 0
-217 -107 0
-218 -108 0
-219 -109 0
-220 -110 0
-211 -11 0
-212 -12 0
-213 -13 0
-214 -14 0
-215 -15 0
-216 -16 0
-217 -17 0
-218 -18 0
-219 -19 0
-220 -20 0
230 229 228 227 226 225 224 223 222 221 0
-221 -222 0
-221 -223 0
-221 -224 0
-221 -225 0
-221 -226 0
-221 -227 0
-221 -228 0
-221 -229 0
-221 -230 0
-222 -223 0
-222 -224 0
-222 -225 0
-222 -226 0
-222 -227 0
-222 -228 0
-222 -229 0
-222 -230 0
-223 -224 0
-223 -225 0
-223 -226 0
-223 -227 0
-223 -228 0
-223 -229 0
-223 -230 0
-224 -225 0
-224 -226 0
-224 -227 0
-224 -228 0
-224 -229 0
-224 -230 0
-225 -226 0
-225 -227 0
-225 -228 0
-225 -229 0
-225 -230 0
-226 -227 0
-226 -228 0
-226 -229 0
-226 -230 0
-227 -228 0
-227 -229 0
-227 -230 0
-228 -229 0
-228 -230 0
-229 -230 0
-221 -201 0
-222 -202 0
-223 -203 0
-224 -204 0
-225 -205 0
-226 -206 0
-227 -207 0
-228 -208 0
-229 -209 0
-230 -210 0
-221 -271 0
-222 -272 0
-223 -273 0
-224 -274 0
-225 -275 0
-226 -276 0
-227 -277 0
-228 -278 0
-229 -279 0
-230 -280 0
-221 -181 0
-222 -182 0
-223 -183 0
-224 -184 0
-225 -185 0
-226 -186 0
-227 -187 0
-228 -188 0
-229 -189 0
-230 -190 0
-221 -251 0
-222 -252 0
-223 -253 0
-224 -254 0
-225 -255 0
-226 -256 0
-227 -257 0
-228 -258 0
-229 -259 0
-230 -260 0
240 239 238 237 236 235 234 233 232 231 0
-231 -232 0
-231 -233 0
-231 -234 0
-231 -235 0
-231 -236 0
-231 -237 0
-231 -238 0
-231 -239 0
-231 -240 0
-232 -233 0
-232 -234 0
-232 -235 0
-232 -236 0
-232 -237 0
-232 -238 0
-232 -239 0
-232 -240 0
-233 -234 0
-233 -235 0
-233 -236 0
-233 -237 0
-233 -238 0
-233 -239 0
-233 -240 0
-234 -235 0
-234 -236 0
-234 -237 0
-234 -238 0
-234 -239 0
-234 -240 0
-235 -236 0
-235 -237 0
-235 -238 0
-235 -239 0
-235 -240 0
-236 -237 0
-236 -238 0
-236 -239 0
-236 -240 0
-237 -238 0
-237 -239 0
-237 -240 0
-238 -239 0
-238 -240 0
-239 -240 0
-231 -141 0
-232 -142 0
-233 -143 0
-234 -144 0
-235 -145 0
-236 -146 0
-237 -147 0
-238 -148 0
-239 -149 0
-240 -150 0
-231 -31 0
-232 -32 0
-233 -33 0
-234 -34 0
-235 -35 0
-236 -36 0
-237 -37 0
-238 -38 0
-239 -39 0
-240 -40 0
-231 -271 0
-232 -272 0
-233 -273 0
-234 -274 0
-235 -275 0
-236 -276 0
-237 -277 0
-238 -278 0
-239 -279 0
-240 -280 0
-231 -151 0
-232 -152 0
-233 -153 0
-234 -154 0
-235 -155 0
-236 -156 0
-237 -157 0
-238 -158 0
-239 -159 0
-240 -160 0
-231 -261 0
-232 -262 0
-233 -263 0
-234 -264 0
-235 -265 0
-236 -266 0
-237 -267 0
-238 -268 0
-239 -269 0
-240 -270 0
-231 -171 0
-232 -172 0
-233 -173 0
-234 -174 0
-235 -175 0
-236 -176 0
-237 -177 0
-238 -178 0
-239 -179 0
-240 -180 0
250 249 248 247 246 245 244 243 242 241 0
-241 -242 0
-241 -243 0
-241 -244 0
-241 -245 0
-241 -246 0
-241 -247 0
-241 -248 0
-241 -249 0
-241 -250 0
-242 -243 0
-242 -244 0
-242 -245 0
-242 -246 0
-242 -247 0
-242 -248 0
-242 -249 0
-242 -250 0
-243 -244 0
-243 -245 0
-243 -246 0
-243 -247 0
-243 -248 0
-243 -249 0
-243 -250 0
-244 -245 0
-244 -246 0
-244 -247 0
-244 -248 0
-244 -249 0
-244 -250 0
-245 -246 0
-245 -247 0
-245 -248 0
-245 -249 0
-245 -250 0
-246 -247 0
-246 -248 0
-246 -249 0
-246 -250 0
-247 -248 0
-247 -249 0
-247 -250 0
-248 -249 0
-248 -250 0
-249 -250 0
-241 -71 0
-242 -72 0
-243 -73 0
-244 -74 0
-245 -75 0
-246 -76 0
-247 -77 0
-248 -78 0
-249 -79 0
-250 -80 0
-241 -41 0
-242 -42 0
-243 -43 0
-244 -44 0
-245 -45 0
-246 -46 0
-247 -47 0
-248 -48 0
-249 -49 0
-250 -50 0
-241 -161 0
-242 -162 0
-243 -163 0
-244 -164 0
-245 -165 0
-246 -166 0
-247 -167 0
-248 -168 0
-249 -169 0
-250 -170 0
260 259 258 257 256 255 254 253 252 251 0
-251 -252 0
-251 -253 0
-251 -254 0
-251 -255 0
-251 -256 0
-251 -257 0
-251 -258 0
-251 -259 0
-251 -260 0
-252 -253 0
-252 -254 0
-252 -255 0
-252 -256 0
-252 -257 0
-252 -258 0
-252 -259 0
-252 -260 0
-253 -254 0
-253 -255 0
-253 -256 0
-253 -257 0
-253 -258 0
-253 -259 0
-253 -260 0
-254 -255 0
-254 -256 0
-254 -257 0
-254 -258 0
-254 -259 0
-254 -260 0
-255 -256 0
-255 -257 0
-255 -258 0
-255 -259 0
-255 -260 0
-256 -257 0
-256 -258 0
-256 -259 0
-256 -260 0
-257 -258 0
-257 -259 0
-257 -260 0
-258 -259 0
-258 -260 0
-259 -260 0
-251 -121 0
-252 -122 0
-253 -123 0
-254 -124 0
-255 -125 0
-256 -126 0
-257 -127 0
-258 -128 0
-259 -129 0
-260 -130 0
-251 -161 0
-252 -162 0
-253 -163 0
-254 -164 0
-255 -165 0
-256 -166 0
-257 -167 0
-258 -168 0
-259 -169 0
-260 -170 0
270 269 268 267 266 265 264 263 262 261 0
-261 -262 0
-261 -263 0
-261 -264 0
-261 -265 0
-261 -266 0
-261 -267 0
-261 -268 0
-261 -269 0
-261 -270 0
-262 -263 0
-262 -264 0
-262 -265 0
-262 -266 0
-262 -267 0
-262 -268 0
-262 -269 0
-262 -270 0
-263 -264 0
-263 -265 0
-263 -266 0
-263 -267 0
-263 -268 0
-263 -269 0
-263 -270 0
-264 -265 0
-264 -266 0
-264 -267 0
-264 -268 0
-264 -269 0
-264 -270 0
-265 -266 0
-265 -267 0
-265 -268 0
-265 -269 0
-265 -270 0
-266 -267 0
-266 -268 0
-266 -269 0
-266 -270 0
-267 -268 0
-267 -269 0
-267 -270 0
-268 -269 0
-268 -270 0
-269 -270 0
-261 -211 0
-262 -212 0
-263 -213 0
-264 -214 0
-265 -215 0
-266 -216 0
-267 -217 0
-268 -218 0
-269 -219 0
-270 -220 0
-261 -171 0
-262 -172 0
-263 -173 0
-264 -174 0
-265 -175 0
-266 -176 0
-267 -177 0
-268 -178 0
-269 -179 0
-270 -180 0
-261 -211 0
-262 -212 0
-263 -213 0
-264 -214 0
-265 -215 0
-266 -216 0
-267 -217 0
-268 -218 0
-269 -219 0
-270 -220 0
280 279 278 277 276 275 274 273 272 271 0
-271 -272 0
-271 -273 0
-271 -274 0
-271 -275 0
-271 -276 0
-271 -277 0
-271 -278 0
-271 -279 0
-271 -280 0
-272 -273 0
-272 -274 0
-272 -275 0
-272 -276 0
-272 -277 0
-272 -278 0
-272 -279 0
-272 -280 0
-273 -274 0
-273 -275 0
-273 -276 0
-273 -277 0
-273 -278 0
-273 -279 0
-273 -280 0
-274 -275 0
-274 -276 0
-274 -277 0
-274 -278 0
-274 -279 0
-274 -280 0
-275 -276 0
-275 -277 0
-275 -278 0
-275 -279 0
-275 -280 0
-276 -277 0
-276 -278 0
-276 -279 0
-276 -280 0
-277 -278 0
-277 -279 0
-277 -280 0
-278 -279 0
-278 -280 0
-279 -280 0
-271 -21 0
-272 -22 0
-273 -23 0
-274 -24 0
-275 -25 0
-276 -26 0
-277 -27 0
-278 -28 0
-279 -29 0
-280 -30 0
-271 -261 0
-272 -262 0
-273 -263 0
-274 -264 0
-275 -265 0
-276 -266 0
-277 -267 0
-278 -268 0
-279 -269 0
-280 -270 0
-271 -111 0
-272 -112 0
-273 -113 0
-274 -114 0
-275 -115 0
-276 -116 0
-277 -117 0
-278 -118 0
-279 -119 0
-280 -120 0
-271 -101 0
-272 -102 0
-273 -103 0
-274 -104 0
-275 -105 0
-276 -106 0
-277 -107 0
-278 -108 0
-279 -109 0
-280 -110 0
-271 -201 0
-272 -202 0
-273 -203 0
-274 -204 0
-275 -205 0
-276 -206 0
-277 -207 0
-278 -208 0
-279 -209 0
-280 -210 0
-271 -141 0
-272 -142 0
-273 -143 0
-274 -144 0
-275 -145 0
-276 -146 0
-277 -147 0
-278 -148 0
-279 -149 0
-280 -150 0
290 289 288 287 286 285 284 283 282 281 0
-281 -282 0
-281 -283 0
-281 -284 0
-281 -285 0
-281 -286 0
-281 -287 0
-281 -288 0
-281 -289 0
-281 -290 0
-282 -283 0
-282 -284 0
-282 -285 0
-282 -286 0
-282 -287 0
-282 -288 0
-282 -289 0
-282 -290 0
-283 -284 0
-283 -285 0
-283 -286 0
-283 -287 0
-283 -288 0
-283 -289 0
-283 -290 0
-284 -285 0
-284 -286 0
-284 -287 0
-284 -288 0
-284 -289 0
-284 -290 0
-285 -286 0
-285 -287 0
-285 -288 0
-285 -289 0
-285 -290 0
-286 -287 0
-286 -288 0
-286 -289 0
-286 -290 0
-287 -288 0
-287 -289 0
-287 -290 0
-288 -289 0
-288 -290 0
-289 -290 0
-281 -241 0
-282 -242 0
-283 -243 0
-284 -244 0
-285 -245 0
-286 -246 0
-287 -247 0
-288 -248 0
-289 -249 0
-290 -250 0
-281 -51 0
-282 -52 0
-283 -53 0
-284 -54 0
-285 -55 0
-286 -56 0
-287 -57 0
-288 -58 0
-289 -59 0
-290 -60 0
-281 -211 0
-282 -212 0
-283 -213 0
-284 -214 0
-285 -215 0
-286 -216 0
-287 -217 0
-288 -218 0
-289 -219 0
-290 -220 0
300 299 298 297 296 295 294 293 292 291 0
-291 -292 0
-291 -293 0
-291 -294 0
-291 -295 0
-291 -296 0
-291 -297 0
-291 -298 0
-291 -299 0
-291 -300 0
-292 -293 0
-292 -294 0
-292 -295 0
-292 -296 0
-292 -297 0
-292 -298 0
-292 -299 0
-292 -300 0
-293 -294 0
-293 -295 0
-293 -296 0
-293 -297 0
-293 -298 0
-293 -299 0
-293 -300 0
-294 -295 0
-294 -296 0
-294 -297 0
-294 -298 0
-294 -299 0
-294 -300 0
-295 -296 0
-295 -297 0
-295 -298 0
-295 -299 0
-295 -300 0
-296 -297 0
-296 -298 0
-296 -299 0
-296 -300 0
-297 -298 0
-297 -299 0
-297 -300 0
-298 -299 0
-298 -300 0
-299 -300 0
-291 -251 0
-292 -252 0
-293 -253 0
-294 -254 0
-295 -255 0
-296 -256 0
-297 -257 0
-298 -258 0
-299 -259 0
-300 -260 0
-291 -151 0
-292 -152 0
-293 -153 0
-294 -154 0
-295 -155 0
-296 -156 0
-297 -157 0
-298 -158 0
-299 -159 0
-300 -160 0
-291 -231 0
-292 -232 0
-293 -233 0
-294 -234 0
-295 -235 0
-296 -236 0
-297 -237 0
-298 -238 0
-299 -239 0
-300 -240 0
-291 -131 0
-292 -132 0
-293 -133 0
-294 -134 0
-295 -135 0
-296 -136 0
-297 -137 0
-298 -138 0
-299 -139 0
-300 -140 0
-291 -181 0
-292 -182 0
-293 -183 0
-294 -184 0
-295 -185 0
-296 -186 0
-297 -187 0
-298 -188 0
-299 -189 0
-300 -190 0
-291 -261 0
-292 -262 0
-293 -263 0
-294 -264 0
-295 -265 0
-296 -266 0
-297 -267 0
-298 -268 0
-299 -269 0
-300 -270 0
1 0
72 0
